instances/knapsack/knapsack_general/knapsack_20_10_1.kp
42
20
5849

664 66.0 764 85.35
550 55.0 650 87.07
644 64.0 744 127.93
431 43.0 531 98.78
202 20.0 302 41.37
680 68.0 780 104.62
883 88.0 983 131.43
700 70.0 800 123.49
276 28.0 376 47.76
962 96.0 1062 160.53
546 55.0 646 117.98
697 70.0 797 92.78
389 39.0 489 81.68
994 99.0 1094 140.48
228 23.0 328 39.36
732 73.0 832 118.32
45 4.0 145 23.61
335 34.0 435 61.69
850 85.0 950 132.4
891 89.0 991 161.22

42
[953, 972, 841, 983, 988, 987, 988, 995, 986, 901]

[[26, 18, 2, 25, 7, 23, 12, 25, 26, 10, 4, 21, 36, 32, 41, 21, 27, 0, 41, 27] [45, 43, 33, 43, 9, 39, 1, 44, 32, 36, 46, 19, 15, 23, 14, 26, 14, 11, 34, 16] [19, 25, 4, 16, 11, 25, 38, 7, 41, 28, 23, 39, 28, 25, 17, 22, 40, 2, 38, 35] [46, 0, 45, 40, 27, 36, 46, 12, 48, 27, 23, 29, 29, 29, 47, 30, 16, 9, 43, 39] [7, 36, 36, 5, 7, 0, 23, 30, 34, 4, 45, 1, 27, 15, 22, 27, 47, 3, 6, 21] [6, 11, 20, 11, 19, 37, 34, 20, 15, 45, 32, 24, 16, 18, 7, 40, 27, 35, 33, 4] [32, 39, 48, 48, 32, 17, 30, 43, 25, 42, 11, 6, 4, 31, 45, 14, 4, 32, 12, 15] [43, 2, 14, 45, 27, 14, 42, 14, 37, 30, 32, 42, 8, 15, 3, 23, 4, 29, 7, 3] [33, 19, 1, 19, 17, 15, 6, 27, 10, 1, 27, 0, 34, 30, 19, 43, 35, 30, 32, 22] [31, 8, 15, 30, 6, 24, 42, 6, 16, 11, 1, 27, 28, 27, 16, 43, 7, 39, 6, 8]]

[[493, 574, 822, 514, 936, 440, 69, 512, 874, 481, 771, 861, 99, 953, 181, 311, 211, 862, 188, 782] [572, 169, 741, 197, 935, 811, 412, 19, 657, 972, 618, 40, 314, 540, 828, 834, 786, 441, 363, 289] [831, 401, 299, 114, 497, 795, 514, 799, 835, 269, 841, 412, 596, 621, 627, 199, 612, 570, 785, 350] [50, 359, 515, 931, 677, 401, 506, 545, 983, 130, 416, 718, 216, 138, 18, 976, 840, 39, 257, 383] [492, 138, 304, 315, 974, 988, 575, 240, 376, 638, 822, 917, 57, 670, 944, 560, 585, 787, 54, 39] [519, 736, 616, 788, 458, 314, 559, 554, 204, 755, 229, 159, 165, 987, 23, 145, 653, 952, 278, 448] [593, 179, 21, 580, 91, 117, 988, 505, 469, 559, 83, 766, 590, 511, 765, 569, 598, 772, 595, 256] [850, 767, 995, 691, 365, 665, 930, 241, 743, 170, 640, 974, 296, 618, 554, 360, 352, 599, 825, 415] [481, 834, 74, 118, 348, 860, 257, 700, 86, 189, 319, 593, 639, 613, 945, 403, 759, 986, 680, 586] [789, 374, 814, 82, 352, 720, 541, 312, 522, 41, 11, 901, 83, 585, 589, 47, 355, 878, 332, 806]]
