instances/knapsack/knapsack_general/knapsack_20_10_1.mps
* Signature: 0x61af68a21ee97ebc
NAME knapsack_20_10_1
ROWS
 N  OBJ
 L  primal_upper
 L  primal_lower0
 L  primal_lower1
 L  primal_lower2
 L  primal_lower3
 L  primal_lower4
 L  primal_lower5
 L  primal_lower6
 L  primal_lower7
 L  primal_lower8
 L  primal_lower9
 L  mccormick1[0]
 L  mccormick1[1]
 L  mccormick1[2]
 L  mccormick1[3]
 L  mccormick1[4]
 L  mccormick1[5]
 L  mccormick1[6]
 L  mccormick1[7]
 L  mccormick1[8]
 L  mccormick1[9]
 L  mccormick1[10]
 L  mccormick1[11]
 L  mccormick1[12]
 L  mccormick1[13]
 L  mccormick1[14]
 L  mccormick1[15]
 L  mccormick1[16]
 L  mccormick1[17]
 L  mccormick1[18]
 L  mccormick1[19]
 L  mccormick2[0]
 L  mccormick2[1]
 L  mccormick2[2]
 L  mccormick2[3]
 L  mccormick2[4]
 L  mccormick2[5]
 L  mccormick2[6]
 L  mccormick2[7]
 L  mccormick2[8]
 L  mccormick2[9]
 L  mccormick2[10]
 L  mccormick2[11]
 L  mccormick2[12]
 L  mccormick2[13]
 L  mccormick2[14]
 L  mccormick2[15]
 L  mccormick2[16]
 L  mccormick2[17]
 L  mccormick2[18]
 L  mccormick2[19]
 L  mccormick3[0]
 L  mccormick3[1]
 L  mccormick3[2]
 L  mccormick3[3]
 L  mccormick3[4]
 L  mccormick3[5]
 L  mccormick3[6]
 L  mccormick3[7]
 L  mccormick3[8]
 L  mccormick3[9]
 L  mccormick3[10]
 L  mccormick3[11]
 L  mccormick3[12]
 L  mccormick3[13]
 L  mccormick3[14]
 L  mccormick3[15]
 L  mccormick3[16]
 L  mccormick3[17]
 L  mccormick3[18]
 L  mccormick3[19]
COLUMNS
    MARKER    'MARKER'                 'INTORG'
    y[0]      OBJ       -764
    y[0]      primal_upper  664
    y[0]      primal_lower0  -26
    y[0]      primal_lower1  -45
    y[0]      primal_lower2  -19
    y[0]      primal_lower3  -46
    y[0]      primal_lower4  -7
    y[0]      primal_lower5  -6
    y[0]      primal_lower6  -32
    y[0]      primal_lower7  -43
    y[0]      primal_lower8  -33
    y[0]      primal_lower9  -31
    y[0]      mccormick2[0]  -1
    y[0]      mccormick3[0]  1
    y[1]      OBJ       -650
    y[1]      primal_upper  550
    y[1]      primal_lower0  -18
    y[1]      primal_lower1  -43
    y[1]      primal_lower2  -25
    y[1]      primal_lower4  -36
    y[1]      primal_lower5  -11
    y[1]      primal_lower6  -39
    y[1]      primal_lower7  -2
    y[1]      primal_lower8  -19
    y[1]      primal_lower9  -8
    y[1]      mccormick2[1]  -1
    y[1]      mccormick3[1]  1
    y[2]      OBJ       -744
    y[2]      primal_upper  644
    y[2]      primal_lower0  -2
    y[2]      primal_lower1  -33
    y[2]      primal_lower2  -4
    y[2]      primal_lower3  -45
    y[2]      primal_lower4  -36
    y[2]      primal_lower5  -20
    y[2]      primal_lower6  -48
    y[2]      primal_lower7  -14
    y[2]      primal_lower8  -1
    y[2]      primal_lower9  -15
    y[2]      mccormick2[2]  -1
    y[2]      mccormick3[2]  1
    y[3]      OBJ       -531
    y[3]      primal_upper  431
    y[3]      primal_lower0  -25
    y[3]      primal_lower1  -43
    y[3]      primal_lower2  -16
    y[3]      primal_lower3  -40
    y[3]      primal_lower4  -5
    y[3]      primal_lower5  -11
    y[3]      primal_lower6  -48
    y[3]      primal_lower7  -45
    y[3]      primal_lower8  -19
    y[3]      primal_lower9  -30
    y[3]      mccormick2[3]  -1
    y[3]      mccormick3[3]  1
    y[4]      OBJ       -302
    y[4]      primal_upper  202
    y[4]      primal_lower0  -7
    y[4]      primal_lower1  -9
    y[4]      primal_lower2  -11
    y[4]      primal_lower3  -27
    y[4]      primal_lower4  -7
    y[4]      primal_lower5  -19
    y[4]      primal_lower6  -32
    y[4]      primal_lower7  -27
    y[4]      primal_lower8  -17
    y[4]      primal_lower9  -6
    y[4]      mccormick2[4]  -1
    y[4]      mccormick3[4]  1
    y[5]      OBJ       -780
    y[5]      primal_upper  680
    y[5]      primal_lower0  -23
    y[5]      primal_lower1  -39
    y[5]      primal_lower2  -25
    y[5]      primal_lower3  -36
    y[5]      primal_lower5  -37
    y[5]      primal_lower6  -17
    y[5]      primal_lower7  -14
    y[5]      primal_lower8  -15
    y[5]      primal_lower9  -24
    y[5]      mccormick2[5]  -1
    y[5]      mccormick3[5]  1
    y[6]      OBJ       -983
    y[6]      primal_upper  883
    y[6]      primal_lower0  -12
    y[6]      primal_lower1  -1
    y[6]      primal_lower2  -38
    y[6]      primal_lower3  -46
    y[6]      primal_lower4  -23
    y[6]      primal_lower5  -34
    y[6]      primal_lower6  -30
    y[6]      primal_lower7  -42
    y[6]      primal_lower8  -6
    y[6]      primal_lower9  -42
    y[6]      mccormick2[6]  -1
    y[6]      mccormick3[6]  1
    y[7]      OBJ       -800
    y[7]      primal_upper  700
    y[7]      primal_lower0  -25
    y[7]      primal_lower1  -44
    y[7]      primal_lower2  -7
    y[7]      primal_lower3  -12
    y[7]      primal_lower4  -30
    y[7]      primal_lower5  -20
    y[7]      primal_lower6  -43
    y[7]      primal_lower7  -14
    y[7]      primal_lower8  -27
    y[7]      primal_lower9  -6
    y[7]      mccormick2[7]  -1
    y[7]      mccormick3[7]  1
    y[8]      OBJ       -376
    y[8]      primal_upper  276
    y[8]      primal_lower0  -26
    y[8]      primal_lower1  -32
    y[8]      primal_lower2  -41
    y[8]      primal_lower3  -48
    y[8]      primal_lower4  -34
    y[8]      primal_lower5  -15
    y[8]      primal_lower6  -25
    y[8]      primal_lower7  -37
    y[8]      primal_lower8  -10
    y[8]      primal_lower9  -16
    y[8]      mccormick2[8]  -1
    y[8]      mccormick3[8]  1
    y[9]      OBJ       -1062
    y[9]      primal_upper  962
    y[9]      primal_lower0  -10
    y[9]      primal_lower1  -36
    y[9]      primal_lower2  -28
    y[9]      primal_lower3  -27
    y[9]      primal_lower4  -4
    y[9]      primal_lower5  -45
    y[9]      primal_lower6  -42
    y[9]      primal_lower7  -30
    y[9]      primal_lower8  -1
    y[9]      primal_lower9  -11
    y[9]      mccormick2[9]  -1
    y[9]      mccormick3[9]  1
    y[10]     OBJ       -646
    y[10]     primal_upper  546
    y[10]     primal_lower0  -4
    y[10]     primal_lower1  -46
    y[10]     primal_lower2  -23
    y[10]     primal_lower3  -23
    y[10]     primal_lower4  -45
    y[10]     primal_lower5  -32
    y[10]     primal_lower6  -11
    y[10]     primal_lower7  -32
    y[10]     primal_lower8  -27
    y[10]     primal_lower9  -1
    y[10]     mccormick2[10]  -1
    y[10]     mccormick3[10]  1
    y[11]     OBJ       -797
    y[11]     primal_upper  697
    y[11]     primal_lower0  -21
    y[11]     primal_lower1  -19
    y[11]     primal_lower2  -39
    y[11]     primal_lower3  -29
    y[11]     primal_lower4  -1
    y[11]     primal_lower5  -24
    y[11]     primal_lower6  -6
    y[11]     primal_lower7  -42
    y[11]     primal_lower9  -27
    y[11]     mccormick2[11]  -1
    y[11]     mccormick3[11]  1
    y[12]     OBJ       -489
    y[12]     primal_upper  389
    y[12]     primal_lower0  -36
    y[12]     primal_lower1  -15
    y[12]     primal_lower2  -28
    y[12]     primal_lower3  -29
    y[12]     primal_lower4  -27
    y[12]     primal_lower5  -16
    y[12]     primal_lower6  -4
    y[12]     primal_lower7  -8
    y[12]     primal_lower8  -34
    y[12]     primal_lower9  -28
    y[12]     mccormick2[12]  -1
    y[12]     mccormick3[12]  1
    y[13]     OBJ       -1094
    y[13]     primal_upper  994
    y[13]     primal_lower0  -32
    y[13]     primal_lower1  -23
    y[13]     primal_lower2  -25
    y[13]     primal_lower3  -29
    y[13]     primal_lower4  -15
    y[13]     primal_lower5  -18
    y[13]     primal_lower6  -31
    y[13]     primal_lower7  -15
    y[13]     primal_lower8  -30
    y[13]     primal_lower9  -27
    y[13]     mccormick2[13]  -1
    y[13]     mccormick3[13]  1
    y[14]     OBJ       -328
    y[14]     primal_upper  228
    y[14]     primal_lower0  -41
    y[14]     primal_lower1  -14
    y[14]     primal_lower2  -17
    y[14]     primal_lower3  -47
    y[14]     primal_lower4  -22
    y[14]     primal_lower5  -7
    y[14]     primal_lower6  -45
    y[14]     primal_lower7  -3
    y[14]     primal_lower8  -19
    y[14]     primal_lower9  -16
    y[14]     mccormick2[14]  -1
    y[14]     mccormick3[14]  1
    y[15]     OBJ       -832
    y[15]     primal_upper  732
    y[15]     primal_lower0  -21
    y[15]     primal_lower1  -26
    y[15]     primal_lower2  -22
    y[15]     primal_lower3  -30
    y[15]     primal_lower4  -27
    y[15]     primal_lower5  -40
    y[15]     primal_lower6  -14
    y[15]     primal_lower7  -23
    y[15]     primal_lower8  -43
    y[15]     primal_lower9  -43
    y[15]     mccormick2[15]  -1
    y[15]     mccormick3[15]  1
    y[16]     OBJ       -145
    y[16]     primal_upper  45
    y[16]     primal_lower0  -27
    y[16]     primal_lower1  -14
    y[16]     primal_lower2  -40
    y[16]     primal_lower3  -16
    y[16]     primal_lower4  -47
    y[16]     primal_lower5  -27
    y[16]     primal_lower6  -4
    y[16]     primal_lower7  -4
    y[16]     primal_lower8  -35
    y[16]     primal_lower9  -7
    y[16]     mccormick2[16]  -1
    y[16]     mccormick3[16]  1
    y[17]     OBJ       -435
    y[17]     primal_upper  335
    y[17]     primal_lower1  -11
    y[17]     primal_lower2  -2
    y[17]     primal_lower3  -9
    y[17]     primal_lower4  -3
    y[17]     primal_lower5  -35
    y[17]     primal_lower6  -32
    y[17]     primal_lower7  -29
    y[17]     primal_lower8  -30
    y[17]     primal_lower9  -39
    y[17]     mccormick2[17]  -1
    y[17]     mccormick3[17]  1
    y[18]     OBJ       -950
    y[18]     primal_upper  850
    y[18]     primal_lower0  -41
    y[18]     primal_lower1  -34
    y[18]     primal_lower2  -38
    y[18]     primal_lower3  -43
    y[18]     primal_lower4  -6
    y[18]     primal_lower5  -33
    y[18]     primal_lower6  -12
    y[18]     primal_lower7  -7
    y[18]     primal_lower8  -32
    y[18]     primal_lower9  -6
    y[18]     mccormick2[18]  -1
    y[18]     mccormick3[18]  1
    y[19]     OBJ       -991
    y[19]     primal_upper  891
    y[19]     primal_lower0  -27
    y[19]     primal_lower1  -16
    y[19]     primal_lower2  -35
    y[19]     primal_lower3  -39
    y[19]     primal_lower4  -21
    y[19]     primal_lower5  -4
    y[19]     primal_lower6  -15
    y[19]     primal_lower7  -3
    y[19]     primal_lower8  -22
    y[19]     primal_lower9  -8
    y[19]     mccormick2[19]  -1
    y[19]     mccormick3[19]  1
    u[0]      primal_lower0  493
    u[0]      primal_lower1  572
    u[0]      primal_lower2  831
    u[0]      primal_lower3  50
    u[0]      primal_lower4  492
    u[0]      primal_lower5  519
    u[0]      primal_lower6  593
    u[0]      primal_lower7  850
    u[0]      primal_lower8  481
    u[0]      primal_lower9  789
    u[0]      mccormick1[0]  -1
    u[0]      mccormick3[0]  1
    u[1]      primal_lower0  574
    u[1]      primal_lower1  169
    u[1]      primal_lower2  401
    u[1]      primal_lower3  359
    u[1]      primal_lower4  138
    u[1]      primal_lower5  736
    u[1]      primal_lower6  179
    u[1]      primal_lower7  767
    u[1]      primal_lower8  834
    u[1]      primal_lower9  374
    u[1]      mccormick1[1]  -1
    u[1]      mccormick3[1]  1
    u[2]      primal_lower0  822
    u[2]      primal_lower1  741
    u[2]      primal_lower2  299
    u[2]      primal_lower3  515
    u[2]      primal_lower4  304
    u[2]      primal_lower5  616
    u[2]      primal_lower6  21
    u[2]      primal_lower7  995
    u[2]      primal_lower8  74
    u[2]      primal_lower9  814
    u[2]      mccormick1[2]  -1
    u[2]      mccormick3[2]  1
    u[3]      primal_lower0  514
    u[3]      primal_lower1  197
    u[3]      primal_lower2  114
    u[3]      primal_lower3  931
    u[3]      primal_lower4  315
    u[3]      primal_lower5  788
    u[3]      primal_lower6  580
    u[3]      primal_lower7  691
    u[3]      primal_lower8  118
    u[3]      primal_lower9  82
    u[3]      mccormick1[3]  -1
    u[3]      mccormick3[3]  1
    u[4]      primal_lower0  936
    u[4]      primal_lower1  935
    u[4]      primal_lower2  497
    u[4]      primal_lower3  677
    u[4]      primal_lower4  974
    u[4]      primal_lower5  458
    u[4]      primal_lower6  91
    u[4]      primal_lower7  365
    u[4]      primal_lower8  348
    u[4]      primal_lower9  352
    u[4]      mccormick1[4]  -1
    u[4]      mccormick3[4]  1
    u[5]      primal_lower0  440
    u[5]      primal_lower1  811
    u[5]      primal_lower2  795
    u[5]      primal_lower3  401
    u[5]      primal_lower4  988
    u[5]      primal_lower5  314
    u[5]      primal_lower6  117
    u[5]      primal_lower7  665
    u[5]      primal_lower8  860
    u[5]      primal_lower9  720
    u[5]      mccormick1[5]  -1
    u[5]      mccormick3[5]  1
    u[6]      primal_lower0  69
    u[6]      primal_lower1  412
    u[6]      primal_lower2  514
    u[6]      primal_lower3  506
    u[6]      primal_lower4  575
    u[6]      primal_lower5  559
    u[6]      primal_lower6  988
    u[6]      primal_lower7  930
    u[6]      primal_lower8  257
    u[6]      primal_lower9  541
    u[6]      mccormick1[6]  -1
    u[6]      mccormick3[6]  1
    u[7]      primal_lower0  512
    u[7]      primal_lower1  19
    u[7]      primal_lower2  799
    u[7]      primal_lower3  545
    u[7]      primal_lower4  240
    u[7]      primal_lower5  554
    u[7]      primal_lower6  505
    u[7]      primal_lower7  241
    u[7]      primal_lower8  700
    u[7]      primal_lower9  312
    u[7]      mccormick1[7]  -1
    u[7]      mccormick3[7]  1
    u[8]      primal_lower0  874
    u[8]      primal_lower1  657
    u[8]      primal_lower2  835
    u[8]      primal_lower3  983
    u[8]      primal_lower4  376
    u[8]      primal_lower5  204
    u[8]      primal_lower6  469
    u[8]      primal_lower7  743
    u[8]      primal_lower8  86
    u[8]      primal_lower9  522
    u[8]      mccormick1[8]  -1
    u[8]      mccormick3[8]  1
    u[9]      primal_lower0  481
    u[9]      primal_lower1  972
    u[9]      primal_lower2  269
    u[9]      primal_lower3  130
    u[9]      primal_lower4  638
    u[9]      primal_lower5  755
    u[9]      primal_lower6  559
    u[9]      primal_lower7  170
    u[9]      primal_lower8  189
    u[9]      primal_lower9  41
    u[9]      mccormick1[9]  -1
    u[9]      mccormick3[9]  1
    u[10]     primal_lower0  771
    u[10]     primal_lower1  618
    u[10]     primal_lower2  841
    u[10]     primal_lower3  416
    u[10]     primal_lower4  822
    u[10]     primal_lower5  229
    u[10]     primal_lower6  83
    u[10]     primal_lower7  640
    u[10]     primal_lower8  319
    u[10]     primal_lower9  11
    u[10]     mccormick1[10]  -1
    u[10]     mccormick3[10]  1
    u[11]     primal_lower0  861
    u[11]     primal_lower1  40
    u[11]     primal_lower2  412
    u[11]     primal_lower3  718
    u[11]     primal_lower4  917
    u[11]     primal_lower5  159
    u[11]     primal_lower6  766
    u[11]     primal_lower7  974
    u[11]     primal_lower8  593
    u[11]     primal_lower9  901
    u[11]     mccormick1[11]  -1
    u[11]     mccormick3[11]  1
    u[12]     primal_lower0  99
    u[12]     primal_lower1  314
    u[12]     primal_lower2  596
    u[12]     primal_lower3  216
    u[12]     primal_lower4  57
    u[12]     primal_lower5  165
    u[12]     primal_lower6  590
    u[12]     primal_lower7  296
    u[12]     primal_lower8  639
    u[12]     primal_lower9  83
    u[12]     mccormick1[12]  -1
    u[12]     mccormick3[12]  1
    u[13]     primal_lower0  953
    u[13]     primal_lower1  540
    u[13]     primal_lower2  621
    u[13]     primal_lower3  138
    u[13]     primal_lower4  670
    u[13]     primal_lower5  987
    u[13]     primal_lower6  511
    u[13]     primal_lower7  618
    u[13]     primal_lower8  613
    u[13]     primal_lower9  585
    u[13]     mccormick1[13]  -1
    u[13]     mccormick3[13]  1
    u[14]     primal_lower0  181
    u[14]     primal_lower1  828
    u[14]     primal_lower2  627
    u[14]     primal_lower3  18
    u[14]     primal_lower4  944
    u[14]     primal_lower5  23
    u[14]     primal_lower6  765
    u[14]     primal_lower7  554
    u[14]     primal_lower8  945
    u[14]     primal_lower9  589
    u[14]     mccormick1[14]  -1
    u[14]     mccormick3[14]  1
    u[15]     primal_lower0  311
    u[15]     primal_lower1  834
    u[15]     primal_lower2  199
    u[15]     primal_lower3  976
    u[15]     primal_lower4  560
    u[15]     primal_lower5  145
    u[15]     primal_lower6  569
    u[15]     primal_lower7  360
    u[15]     primal_lower8  403
    u[15]     primal_lower9  47
    u[15]     mccormick1[15]  -1
    u[15]     mccormick3[15]  1
    u[16]     primal_lower0  211
    u[16]     primal_lower1  786
    u[16]     primal_lower2  612
    u[16]     primal_lower3  840
    u[16]     primal_lower4  585
    u[16]     primal_lower5  653
    u[16]     primal_lower6  598
    u[16]     primal_lower7  352
    u[16]     primal_lower8  759
    u[16]     primal_lower9  355
    u[16]     mccormick1[16]  -1
    u[16]     mccormick3[16]  1
    u[17]     primal_lower0  862
    u[17]     primal_lower1  441
    u[17]     primal_lower2  570
    u[17]     primal_lower3  39
    u[17]     primal_lower4  787
    u[17]     primal_lower5  952
    u[17]     primal_lower6  772
    u[17]     primal_lower7  599
    u[17]     primal_lower8  986
    u[17]     primal_lower9  878
    u[17]     mccormick1[17]  -1
    u[17]     mccormick3[17]  1
    u[18]     primal_lower0  188
    u[18]     primal_lower1  363
    u[18]     primal_lower2  785
    u[18]     primal_lower3  257
    u[18]     primal_lower4  54
    u[18]     primal_lower5  278
    u[18]     primal_lower6  595
    u[18]     primal_lower7  825
    u[18]     primal_lower8  680
    u[18]     primal_lower9  332
    u[18]     mccormick1[18]  -1
    u[18]     mccormick3[18]  1
    u[19]     primal_lower0  782
    u[19]     primal_lower1  289
    u[19]     primal_lower2  350
    u[19]     primal_lower3  383
    u[19]     primal_lower4  39
    u[19]     primal_lower5  448
    u[19]     primal_lower6  256
    u[19]     primal_lower7  415
    u[19]     primal_lower8  586
    u[19]     primal_lower9  806
    u[19]     mccormick1[19]  -1
    u[19]     mccormick3[19]  1
    z[0]      primal_upper  66
    z[0]      mccormick1[0]  1
    z[0]      mccormick2[0]  1
    z[0]      mccormick3[0]  -1
    z[1]      primal_upper  55
    z[1]      mccormick1[1]  1
    z[1]      mccormick2[1]  1
    z[1]      mccormick3[1]  -1
    z[2]      primal_upper  64
    z[2]      mccormick1[2]  1
    z[2]      mccormick2[2]  1
    z[2]      mccormick3[2]  -1
    z[3]      primal_upper  43
    z[3]      mccormick1[3]  1
    z[3]      mccormick2[3]  1
    z[3]      mccormick3[3]  -1
    z[4]      primal_upper  20
    z[4]      mccormick1[4]  1
    z[4]      mccormick2[4]  1
    z[4]      mccormick3[4]  -1
    z[5]      primal_upper  68
    z[5]      mccormick1[5]  1
    z[5]      mccormick2[5]  1
    z[5]      mccormick3[5]  -1
    z[6]      primal_upper  88
    z[6]      mccormick1[6]  1
    z[6]      mccormick2[6]  1
    z[6]      mccormick3[6]  -1
    z[7]      primal_upper  70
    z[7]      mccormick1[7]  1
    z[7]      mccormick2[7]  1
    z[7]      mccormick3[7]  -1
    z[8]      primal_upper  28
    z[8]      mccormick1[8]  1
    z[8]      mccormick2[8]  1
    z[8]      mccormick3[8]  -1
    z[9]      primal_upper  96
    z[9]      mccormick1[9]  1
    z[9]      mccormick2[9]  1
    z[9]      mccormick3[9]  -1
    z[10]     primal_upper  55
    z[10]     mccormick1[10]  1
    z[10]     mccormick2[10]  1
    z[10]     mccormick3[10]  -1
    z[11]     primal_upper  70
    z[11]     mccormick1[11]  1
    z[11]     mccormick2[11]  1
    z[11]     mccormick3[11]  -1
    z[12]     primal_upper  39
    z[12]     mccormick1[12]  1
    z[12]     mccormick2[12]  1
    z[12]     mccormick3[12]  -1
    z[13]     primal_upper  99
    z[13]     mccormick1[13]  1
    z[13]     mccormick2[13]  1
    z[13]     mccormick3[13]  -1
    z[14]     primal_upper  23
    z[14]     mccormick1[14]  1
    z[14]     mccormick2[14]  1
    z[14]     mccormick3[14]  -1
    z[15]     primal_upper  73
    z[15]     mccormick1[15]  1
    z[15]     mccormick2[15]  1
    z[15]     mccormick3[15]  -1
    z[16]     primal_upper  4
    z[16]     mccormick1[16]  1
    z[16]     mccormick2[16]  1
    z[16]     mccormick3[16]  -1
    z[17]     primal_upper  34
    z[17]     mccormick1[17]  1
    z[17]     mccormick2[17]  1
    z[17]     mccormick3[17]  -1
    z[18]     primal_upper  85
    z[18]     mccormick1[18]  1
    z[18]     mccormick2[18]  1
    z[18]     mccormick3[18]  -1
    z[19]     primal_upper  89
    z[19]     mccormick1[19]  1
    z[19]     mccormick2[19]  1
    z[19]     mccormick3[19]  -1
    MARKER    'MARKER'                 'INTEND'
RHS
    RHS1      primal_upper  5849
    RHS1      primal_lower0  953
    RHS1      primal_lower1  972
    RHS1      primal_lower2  841
    RHS1      primal_lower3  983
    RHS1      primal_lower4  988
    RHS1      primal_lower5  987
    RHS1      primal_lower6  988
    RHS1      primal_lower7  995
    RHS1      primal_lower8  986
    RHS1      primal_lower9  901
    RHS1      mccormick3[0]  1
    RHS1      mccormick3[1]  1
    RHS1      mccormick3[2]  1
    RHS1      mccormick3[3]  1
    RHS1      mccormick3[4]  1
    RHS1      mccormick3[5]  1
    RHS1      mccormick3[6]  1
    RHS1      mccormick3[7]  1
    RHS1      mccormick3[8]  1
    RHS1      mccormick3[9]  1
    RHS1      mccormick3[10]  1
    RHS1      mccormick3[11]  1
    RHS1      mccormick3[12]  1
    RHS1      mccormick3[13]  1
    RHS1      mccormick3[14]  1
    RHS1      mccormick3[15]  1
    RHS1      mccormick3[16]  1
    RHS1      mccormick3[17]  1
    RHS1      mccormick3[18]  1
    RHS1      mccormick3[19]  1
BOUNDS
 BV BND1      y[0]    
 BV BND1      y[1]    
 BV BND1      y[2]    
 BV BND1      y[3]    
 BV BND1      y[4]    
 BV BND1      y[5]    
 BV BND1      y[6]    
 BV BND1      y[7]    
 BV BND1      y[8]    
 BV BND1      y[9]    
 BV BND1      y[10]   
 BV BND1      y[11]   
 BV BND1      y[12]   
 BV BND1      y[13]   
 BV BND1      y[14]   
 BV BND1      y[15]   
 BV BND1      y[16]   
 BV BND1      y[17]   
 BV BND1      y[18]   
 BV BND1      y[19]   
 BV BND1      u[0]    
 BV BND1      u[1]    
 BV BND1      u[2]    
 BV BND1      u[3]    
 BV BND1      u[4]    
 BV BND1      u[5]    
 BV BND1      u[6]    
 BV BND1      u[7]    
 BV BND1      u[8]    
 BV BND1      u[9]    
 BV BND1      u[10]   
 BV BND1      u[11]   
 BV BND1      u[12]   
 BV BND1      u[13]   
 BV BND1      u[14]   
 BV BND1      u[15]   
 BV BND1      u[16]   
 BV BND1      u[17]   
 BV BND1      u[18]   
 BV BND1      u[19]   
 BV BND1      z[0]    
 BV BND1      z[1]    
 BV BND1      z[2]    
 BV BND1      z[3]    
 BV BND1      z[4]    
 BV BND1      z[5]    
 BV BND1      z[6]    
 BV BND1      z[7]    
 BV BND1      z[8]    
 BV BND1      z[9]    
 BV BND1      z[10]   
 BV BND1      z[11]   
 BV BND1      z[12]   
 BV BND1      z[13]   
 BV BND1      z[14]   
 BV BND1      z[15]   
 BV BND1      z[16]   
 BV BND1      z[17]   
 BV BND1      z[18]   
 BV BND1      z[19]   
ENDATA
